(set-info :source |printed by MathSAT|)
(declare-fun main@%tmp8.i_0_3 () Int)
(declare-fun .y.13 () Int)
(declare-fun main@%tmp10.i_0_3 () Int)
(declare-fun .y.14 () Int)
(declare-fun main@%shadow.mem.0_0_3 () (Array Int Int))
(declare-fun .y.15 () (Array Int Int))
(declare-fun main@%tmp2.i_0_3 () Int)
(declare-fun .y.16 () Int)
(declare-fun .y.10 () (Array Int Int))
(declare-fun .y.17 () (Array Int Int))
(declare-fun main@%i.1.i_0_1 () Int)
(declare-fun .y.18 () Int)
(declare-fun main@%shadow.mem1.1_0_1 () (Array Int Int))
(declare-fun .y.19 () (Array Int Int))
(declare-fun .loc.11 () Bool)
(declare-fun .loc.20 () Bool)
(declare-fun .loc.12 () Bool)
(declare-fun .loc.21 () Bool)
(declare-fun main@%tmp54.i_0 () Int)
(declare-fun main@%tmp45.i_0 () Int)
(declare-fun main@%tmp58.i_0 () Int)
(declare-fun main@%tmp60.i_0 () Int)
(declare-fun main@%tmp61.i_0 () Int)
(define-fun .def_8 () Int (! main@%tmp8.i_0_3 :next |.y.13|))
(define-fun .def_10 () Int (! main@%tmp10.i_0_3 :next |.y.14|))
(define-fun .def_12 () (Array Int Int) (! main@%shadow.mem.0_0_3 :next |.y.15|))
(define-fun .def_14 () Int (! main@%tmp2.i_0_3 :next |.y.16|))
(define-fun .def_16 () (Array Int Int) (! .y.10 :next |.y.17|))
(define-fun .def_18 () Int (! main@%i.1.i_0_1 :next |.y.18|))
(define-fun .def_20 () (Array Int Int) (! main@%shadow.mem1.1_0_1 :next |.y.19|))
(define-fun .def_22 () Bool (! .loc.11 :next |.loc.20|))
(define-fun .def_24 () Bool (! .loc.12 :next |.loc.21|))
(define-fun .def_29 () Int (! main@%tmp54.i_0 :next |.xtv.1|))
(define-fun .def_49 () Int (! main@%tmp45.i_0 :next |.xtv.2|))
(define-fun .def_53 () Int (! main@%tmp58.i_0 :next |.xtv.3|))
(define-fun .def_112 () Int (! main@%tmp60.i_0 :next |.xtv.4|))
(define-fun .def_191 () Int (! main@%tmp61.i_0 :next |.xtv.5|))
(define-fun .def_81 () Bool (not .def_22))
(define-fun .def_36 () Bool (not .def_24))
(define-fun .def_217 () Bool (! (and .def_36 .def_81) :init true))
(define-fun .def_205 () Int (select .def_20 .def_29))
(define-fun .def_204 () Int (select .def_12 .def_191))
(define-fun .def_206 () Bool (= .def_204 .def_205))
(define-fun .def_207 () Bool (not .def_206))
(define-fun .def_199 () Bool (<= .def_191 0))
(define-fun .def_200 () Bool (not .def_199))
(define-fun .def_99 () Bool (<= .def_10 0))
(define-fun .def_201 () Bool (or .def_99 .def_200))
(define-fun .def_192 () Int (* (- 1) .def_191))
(define-fun .def_195 () Int (+ .def_112 .def_192))
(define-fun .def_196 () Int (+ .def_10 .def_195))
(define-fun .def_197 () Bool (= .def_196 0))
(define-fun .def_64 () Int (* (- 1) .def_53))
(define-fun .def_187 () Int (+ .def_64 .def_112))
(define-fun .def_188 () Int (+ .def_49 .def_187))
(define-fun .def_189 () Bool (= .def_188 0))
(define-fun .def_67 () Int (+ .def_14 .def_64))
(define-fun .def_183 () Bool (= .def_67 1))
(define-fun .def_71 () Int (* (- 1) .def_29))
(define-fun .def_177 () Int (+ .def_71 .def_49))
(define-fun .def_178 () Int (+ .def_8 .def_177))
(define-fun .def_179 () Bool (= .def_178 0))
(define-fun .def_172 () Bool (<= .def_14 .def_49))
(define-fun .def_173 () Bool (not .def_172))
(define-fun .def_169 () Bool (<= .def_49 (- 1)))
(define-fun .def_170 () Bool (not .def_169))
(define-fun .def_96 () Bool (<= .def_14 .def_18))
(define-fun .def_171 () Bool (and .def_96 .def_170))
(define-fun .def_174 () Bool (and .def_171 .def_173))
(define-fun .def_180 () Bool (and .def_174 .def_179))
(define-fun .def_30 () Bool (<= .def_29 0))
(define-fun .def_31 () Bool (not .def_30))
(define-fun .def_27 () Bool (<= .def_8 0))
(define-fun .def_32 () Bool (or .def_27 .def_31))
(define-fun .def_181 () Bool (and .def_32 .def_180))
(define-fun .def_28 () Bool (not .def_27))
(define-fun .def_182 () Bool (and .def_28 .def_181))
(define-fun .def_184 () Bool (and .def_182 .def_183))
(define-fun .def_190 () Bool (and .def_184 .def_189))
(define-fun .def_198 () Bool (and .def_190 .def_197))
(define-fun .def_202 () Bool (and .def_198 .def_201))
(define-fun .def_100 () Bool (not .def_99))
(define-fun .def_203 () Bool (and .def_100 .def_202))
(define-fun .def_208 () Bool (and .def_203 .def_207))
(define-fun .def_209 () Bool (and .def_24 .def_208))
(define-fun .def_210 () Bool (and .def_81 .def_209))
(define-fun .def_211 () Bool (and .loc.20 .def_210))
(define-fun .def_167 () Bool (= .y.16 .def_18))
(define-fun .def_165 () Bool (= .y.15 .def_16))
(define-fun .def_163 () Bool (= .y.14 .def_14))
(define-fun .def_159 () Bool (= .y.18 0))
(define-fun .def_157 () Bool (= .def_12 .y.19))
(define-fun .def_104 () Bool (not .loc.20))
(define-fun .def_155 () Bool (and .def_22 .def_104))
(define-fun .def_156 () Bool (and .def_36 .def_155))
(define-fun .def_158 () Bool (and .def_156 .def_157))
(define-fun .def_160 () Bool (and .def_158 .def_159))
(define-fun .def_76 () Bool (<= .def_18 .def_10))
(define-fun .def_161 () Bool (and .def_76 .def_160))
(define-fun .def_38 () Bool (= .def_8 .y.13))
(define-fun .def_162 () Bool (and .def_38 .def_161))
(define-fun .def_164 () Bool (and .def_162 .def_163))
(define-fun .def_166 () Bool (and .def_164 .def_165))
(define-fun .def_168 () Bool (and .def_166 .def_167))
(define-fun .def_212 () Bool (or .def_168 .def_211))
(define-fun .def_152 () Bool (= .def_12 .y.15))
(define-fun .def_150 () Bool (= .def_10 .y.14))
(define-fun .def_147 () Int (+ .def_14 .def_71))
(define-fun .def_148 () Bool (= .def_147 1))
(define-fun .def_140 () Int (+ .def_71 .def_53))
(define-fun .def_141 () Int (+ .def_18 .def_140))
(define-fun .def_142 () Bool (= .def_141 0))
(define-fun .def_131 () Int (* (- 1) .def_49))
(define-fun .def_134 () Int (+ .def_131 .def_53))
(define-fun .def_135 () Int (+ .def_10 .def_134))
(define-fun .def_136 () Bool (= .def_135 0))
(define-fun .def_127 () Bool (<= .def_49 0))
(define-fun .def_128 () Bool (not .def_127))
(define-fun .def_129 () Bool (or .def_99 .def_128))
(define-fun .def_120 () Int (* (- 1) .def_112))
(define-fun .def_123 () Int (+ .def_18 .def_120))
(define-fun .def_124 () Int (+ .def_8 .def_123))
(define-fun .def_125 () Bool (= .def_124 0))
(define-fun .def_116 () Bool (<= .def_112 0))
(define-fun .def_117 () Bool (not .def_116))
(define-fun .def_118 () Bool (or .def_27 .def_117))
(define-fun .def_111 () Int (select .def_12 .def_49))
(define-fun .def_113 () (Array Int Int) (store .def_20 .def_112 .def_111))
(define-fun .def_114 () Bool (= .y.19 .def_113))
(define-fun .def_107 () Int (* (- 1) .y.18))
(define-fun .def_108 () Int (+ .def_18 .def_107))
(define-fun .def_109 () Bool (= .def_108 (- 1)))
(define-fun .def_97 () Bool (not .def_96))
(define-fun .def_98 () Bool (and .def_28 .def_97))
(define-fun .def_101 () Bool (and .def_98 .def_100))
(define-fun .def_102 () Bool (and .def_24 .def_101))
(define-fun .def_103 () Bool (and .def_81 .def_102))
(define-fun .def_105 () Bool (and .def_103 .def_104))
(define-fun .def_106 () Bool (and .def_38 .def_105))
(define-fun .def_110 () Bool (and .def_106 .def_109))
(define-fun .def_115 () Bool (and .def_110 .def_114))
(define-fun .def_119 () Bool (and .def_115 .def_118))
(define-fun .def_126 () Bool (and .def_119 .def_125))
(define-fun .def_130 () Bool (and .def_126 .def_129))
(define-fun .def_137 () Bool (and .def_130 .def_136))
(define-fun .def_143 () Bool (and .def_137 .def_142))
(define-fun .def_149 () Bool (and .def_143 .def_148))
(define-fun .def_151 () Bool (and .def_149 .def_150))
(define-fun .def_153 () Bool (and .def_151 .def_152))
(define-fun .def_40 () Bool (= .def_14 .y.16))
(define-fun .def_154 () Bool (and .def_40 .def_153))
(define-fun .def_213 () Bool (or .def_154 .def_212))
(define-fun .def_214 () Bool (and .loc.21 .def_213))
(define-fun .def_93 () Bool (<= .y.18 0))
(define-fun .def_94 () Bool (not .def_93))
(define-fun .def_90 () Bool (<= .y.13 0))
(define-fun .def_91 () Bool (not .def_90))
(define-fun .def_87 () Bool (<= .y.16 0))
(define-fun .def_88 () Bool (not .def_87))
(define-fun .def_85 () Bool (= .y.14 0))
(define-fun .def_82 () Bool (and .loc.20 .def_81))
(define-fun .def_83 () Bool (and .def_36 .def_82))
(define-fun .def_42 () Bool (not .loc.21))
(define-fun .def_84 () Bool (and .def_42 .def_83))
(define-fun .def_86 () Bool (and .def_84 .def_85))
(define-fun .def_89 () Bool (and .def_86 .def_88))
(define-fun .def_92 () Bool (and .def_89 .def_91))
(define-fun .def_95 () Bool (and .def_92 .def_94))
(define-fun .def_215 () Bool (or .def_95 .def_214))
(define-fun .def_79 () Bool (= .def_18 .y.18))
(define-fun .def_77 () Bool (not .def_76))
(define-fun .def_72 () Int (+ .def_10 .def_71))
(define-fun .def_73 () Int (+ .def_8 .def_72))
(define-fun .def_74 () Bool (= .def_73 0))
(define-fun .def_68 () Int (+ .def_10 .def_67))
(define-fun .def_69 () Bool (= .def_68 0))
(define-fun .def_60 () Bool (<= .def_53 0))
(define-fun .def_61 () Bool (not .def_60))
(define-fun .def_57 () Bool (<= .def_14 0))
(define-fun .def_62 () Bool (or .def_57 .def_61))
(define-fun .def_58 () Bool (not .def_57))
(define-fun .def_54 () (Array Int Int) (store .def_16 .def_53 .def_49))
(define-fun .def_55 () Bool (= .y.17 .def_54))
(define-fun .def_50 () (Array Int Int) (store .def_12 .def_29 .def_49))
(define-fun .def_51 () Bool (= .y.15 .def_50))
(define-fun .def_45 () Int (* (- 1) .y.14))
(define-fun .def_46 () Int (+ .def_10 .def_45))
(define-fun .def_47 () Bool (= .def_46 (- 1)))
(define-fun .def_33 () Bool (and .def_28 .def_32))
(define-fun .def_34 () Bool (and .def_22 .def_33))
(define-fun .def_35 () Bool (and .loc.20 .def_34))
(define-fun .def_37 () Bool (and .def_35 .def_36))
(define-fun .def_39 () Bool (and .def_37 .def_38))
(define-fun .def_41 () Bool (and .def_39 .def_40))
(define-fun .def_43 () Bool (and .def_41 .def_42))
(define-fun .def_48 () Bool (and .def_43 .def_47))
(define-fun .def_52 () Bool (and .def_48 .def_51))
(define-fun .def_56 () Bool (and .def_52 .def_55))
(define-fun .def_59 () Bool (and .def_56 .def_58))
(define-fun .def_63 () Bool (and .def_59 .def_62))
(define-fun .def_70 () Bool (and .def_63 .def_69))
(define-fun .def_75 () Bool (and .def_70 .def_74))
(define-fun .def_78 () Bool (and .def_75 .def_77))
(define-fun .def_80 () Bool (and .def_78 .def_79))
(define-fun .def_216 () Bool (! (or .def_80 .def_215) :trans true))
(define-fun .def_218 () Bool (and .def_22 .def_24))
(define-fun .def_219 () Bool (! (not .def_218) :invar-property 0))
(assert true)
